; CLARITY Act Requirements in SMT-LIB
; Digital Asset Market Clarity Act of 2025

(set-logic ALL)

; Agent types
(declare-datatypes ((Agent 0)) (
  ((DigitalCommodityExchange)
   (DigitalCommodityBroker)
   (DigitalCommodityDealer)
   (Issuer)
   (SEC)
   (CFTC)
   (FederalReserveBank))))

; Deontic operators
(define-fun obligatory ((agent Agent) (action Bool)) Bool action)
(define-fun forbidden ((agent Agent) (action Bool)) Bool (not action))
(define-fun permitted ((agent Agent) (action Bool)) Bool true)

; Requirements
; The digital commodity exchanges is obligated to register with the cftc, provided that the CFTC.
(assert (obligatory digital_commodity_exchanges true))

; The digital commodity brokers is obligated to register with the cftc, provided that the CFTC.
(assert (obligatory digital_commodity_brokers true))

; The digital commodity dealers is obligated to register with the cftc, provided that the CFTC.
(assert (obligatory digital_commodity_dealers true))

; The issuers is obligated to disclose information about blockchain system maturity.
(assert (obligatory issuers true))

; The issuers is obligated to disclose financial condition.
(assert (obligatory issuers true))

; The sec is obligated to certify blockchain systems deemed mature.
(assert (obligatory sec true))

; The exchanges is obligated to implement trade monitoring.
(assert (obligatory exchanges true))

; The exchanges is obligated to maintain recordkeeping systems.
(assert (obligatory exchanges true))

; The exchanges is forbidden from commingle customer assets.
(assert (forbidden exchanges true))

; The brokers is obligated to implement risk management.
(assert (obligatory brokers true))

(check-sat)
